c File: instances/26_0.25_1.col
c
c Description: Random graph of size 26 vertices and P(0.25) of edges between any two vertices.
p col 26 325
e 1 9
e 1 14
e 1 15
e 1 17
e 1 19
e 1 23
e 2 3
e 2 6
e 2 11
e 2 17
e 2 19
e 2 21
e 2 24
e 2 25
e 3 8
e 3 25
e 4 8
e 4 18
e 4 19
e 4 20
e 5 21
e 5 22
e 5 26
e 6 14
e 6 17
e 6 25
e 6 26
e 7 14
e 7 21
e 7 24
e 8 10
e 8 13
e 8 14
e 8 22
e 9 14
e 9 17
e 9 18
e 9 21
e 9 24
e 10 13
e 10 17
e 10 18
e 10 19
e 10 20
e 10 22
e 10 26
e 11 20
e 12 13
e 12 15
e 12 17
e 12 21
e 12 23
e 12 25
e 13 14
e 13 15
e 13 17
e 13 22
e 13 23
e 14 22
e 14 23
e 14 26
e 15 18
e 15 19
e 15 21
e 15 26
e 16 20
e 16 23
e 17 18
e 17 19
e 17 20
e 17 21
e 18 22
e 20 21
e 20 25
e 21 22
e 21 26
e 23 24
e 25 26